# Solution for model count
# Objective value = 10
z#1 0
z#2 1
z#3 0
z#4 0
z#5 1
z#6 0
z#7 0
z#8 0
z#9 1
z#10 0
z#11 1
z#12 0
z#13 1
z#14 0
z#15 1
z#16 1
z#17 0
z#18 0
z#19 1
z#20 0
z#21 0
z#22 1
z#23 1
z#24 0
x#24 0
x#23 144
x#22 1531
x#21 0
x#20 0
x#19 82
x#18 0
x#17 0
x#16 123
x#15 2460
x#14 0
x#13 1399
x#12 0
x#11 3352
x#10 0
x#9 56
x#8 0
x#7 0
x#6 0
x#5 32
x#4 0
x#3 0
x#2 821
x#1 0
